% tiny instance for the model that minimizes the makespan precedence constraint

% The following instance of the problem: 
%   placement = [[9, 8, 7, 6, 4, 3, 2, 0, 1, 5], [], []]
%   freq_seq = [0, 1, 0]
% results in:
%   371293.91 True False 
% i.e., the instance does not pass the utilization constraint, 
% assuming worst-fit task placement heuristics.
% The goal here is to confirm whether this instance is indeed 
% unfeasible, or it is a limitation of the worst-fit heuristics.

N_CORES = 2;
N_NODES = 10;
N_EDGES = 15;

N_UNREL_ROWS = 7;
N_UNREL_COLS = 3;

% the dag deadline
Ddag = 100;

% wcet for each task
T = [0,10,10,16,10,10,10,10,10,0];

% relative deadline to each task
D = [0,33,33,44,33,27,34,29,34,0];

% cpu utilization per task: T[i]/D[i]
U = [0.0, 0.3030, 0.3030, 0.3636, 0.3030, 0.3704, 0.2941, 0.3448, 0.2941, 0.0];

% non related nodes, i.e., nodes that could be executed concurrently
unrelated_node =   [| 7, 8, 9  
                    | 4, 7, 1  
                    | 6, 7, 9  
                    | 2, 6, 1  
                    | 5, 6, 1  
                    | 2, 3, 4  
                    | 4, 5, 1 |];

% from: the leaving node for each edge
% to: the entering node for each edge
% list of edges indicating which nodes are connected
E =  [| 1,2
      | 1,3
      | 1,4
      | 2,5
      | 3,5
      | 3,6
      | 4,6
      | 4,9
      | 5,7
      | 5,8
      | 5,9
      | 6,8
      | 7,10
      | 8,10
      | 9,10 |]; 
